c
c start with comments
c
p cnf 40 30
-36 22 0
-30 1 -15 0
-42 -11 0
-41 -15 32 4 0
12 25 13 0
13 -24 5 4 43 0
26 -6 -35 0
-33 -41 -2 -12 -43 0
-22 21 -16 -19 -12 0
-13 -13 18 0
-8 -40 -18 0
-38 31 -10 0
-19 34 24 -19 -18 0
12 28 36 0
-8 -4 11 0
23 27 0
-12 -37 -10 0
14 -10 4 -27 41 -34 0
15 20 0
39 -37 33 0
28 24 37 0
-20 -26 0
-22 -12 39 4 -1 0
-29 14 14 36 0
-1 3 -15 -24 -16 0
-12 35 39 -41 8 -29 0
-43 8 -19 -6 16 -25 0
29 31 -28 2 0
24 11 -12 0
-23 6 0